p edge 28 168
1 2
1 3
1 4
1 5
1 6
1 7
1 8
1 9
1 10
1 11
1 12
1 13
2 3
2 4
2 5
2 6
2 7
2 8
2 14
2 15
2 16
2 17
2 18
3 4
3 5
3 6
3 7
3 9
3 14
3 19
3 20
3 21
3 22
4 5
4 6
4 7
4 10
4 15
4 19
4 23
4 24
4 25
5 6
5 7
5 11
5 16
5 20
5 23
5 26
5 27
6 7
6 12
6 17
6 21
6 24
6 26
6 28
7 13
7 18
7 22
7 25
7 27
7 28
8 9
8 10
8 11
8 12
8 13
8 14
8 15
8 16
8 17
8 18
9 10
9 11
9 12
9 13
9 14
9 19
9 20
9 21
9 22
10 11
10 12
10 13
10 15
10 19
10 23
10 24
10 25
11 12
11 13
11 16
11 20
11 23
11 26
11 27
12 13
12 17
12 21
12 24
12 26
12 28
13 18
13 22
13 25
13 27
13 28
14 15
14 16
14 17
14 18
14 19
14 20
14 21
14 22
15 16
15 17
15 18
15 19
15 23
15 24
15 25
16 17
16 18
16 20
16 23
16 26
16 27
17 18
17 21
17 24
17 26
17 28
18 22
18 25
18 27
18 28
19 20
19 21
19 22
19 23
19 24
19 25
20 21
20 22
20 23
20 26
20 27
21 22
21 24
21 26
21 28
22 25
22 27
22 28
23 24
23 25
23 26
23 27
24 25
24 26
24 28
25 27
25 28
26 27
26 28
27 28
